160
0 84 152 158 61 19 87 73 72 35 
95 46 18 127 75 92 76 23 131 67 
6 57 156 157 159 36 79 143 129 142 
117 20 31 53 49 147 105 14 8 60 
110 98 94 1 26 42 68 90 141 32 
81 77 65 102 54 101 24 137 80 125 
64 144 120 47 107 69 33 97 133 139 
132 59 16 149 3 123 100 9 21 55 
150 66 116 37 91 4 140 86 43 130 
111 85 7 99 50 74 146 155 108 29 
122 136 88 82 138 28 52 104 124 2 
15 38 56 113 62 40 78 58 112 13 
71 22 114 106 135 118 41 153 119 96 
103 63 154 109 126 10 34 44 48 148 
5 12 151 121 83 51 70 39 115 30 
27 11 145 134 17 93 89 25 45 128 
